
Gurobi 7.0.2 (linux64, Matlab) logging started Sun Sep  2 08:55:07 2018


Gurobi 7.0.2 (linux64) logging started Sun Sep  2 08:55:07 2018

Optimize a model with 2499 rows, 35915 columns and 569806 nonzeros
Coefficient statistics:
  Matrix range     [9e-01, 8e+03]
  Objective range  [3e+03, 4e+05]
  Bounds range     [1e+00, 1e+07]
  RHS range        [1e+00, 1e+00]
Iteration    Objective       Primal Inf.    Dual Inf.      Time
       0   -1.4182313e+07   0.000000e+00   2.550446e-01      0s
     113   -1.4182313e+07   0.000000e+00   0.000000e+00      0s

Solved in 113 iterations and 0.03 seconds
Optimal objective -1.418231266e+07
